c User generated cnf file
p cnf 13 62
9 -9 7 0 
13 -2 4 0 
5 8 -7 0 
4 8 -3 0 
-9 9 1 0 
6 6 -10 0 
9 -1 1 0 
8 -3 6 0 
6 4 -4 0 
3 6 -6 0 
10 9 -3 0 
-7 6 12 0 
-3 10 1 0 
10 -8 6 0 
-3 2 3 0 
5 -7 1 0 
8 -6 1 0 
4 7 -1 0 
12 -4 12 0 
-9 3 6 0 
7 9 -11 0 
4 -5 10 0 
10 -2 6 0 
5 8 -7 0 
8 4 -9 0 
13 9 -4 0 
8 12 -5 0 
3 6 -11 0 
11 1 -2 0 
-13 4 7 0 
4 -11 3 0 
13 -11 4 0 
11 -11 13 0 
5 -8 5 0 
11 8 -9 0 
9 4 -9 0 
-12 11 10 0 
-6 5 7 0 
4 9 -13 0 
-6 7 12 0 
6 1 -3 0 
3 -9 5 0 
-9 8 7 0 
-6 8 12 0 
4 -6 4 0 
1 4 -11 0 
9 -2 2 0 
-12 6 4 0 
10 9 -13 0 
6 -13 2 0 
7 -7 2 0 
-1 4 4 0 
-5 3 2 0 
13 -11 13 0 
-3 8 11 0 
-8 10 8 0 
-11 6 2 0 
7 -11 10 0 
-9 11 6 0 
10 2 -2 0 
7 -10 1 0 
-2 1 13 0 
